multiobj/instances/uniform/Ter.6.2.0.00.2.in
6 2
0 555 650 868 523 851 
555 0 135 334 321 333 
650 135 0 169 904 551 
868 334 169 0 490 933 
523 321 904 490 0 256 
851 333 551 933 256 0 
0 93 571 938 86 902 
93 0 557 434 192 306 
571 557 0 581 960 629 
938 434 581 0 547 74 
86 192 960 547 0 114 
902 306 629 74 114 0 
0 322 877 852 766 837 
322 0 856 513 354 634 
877 856 0 599 602 519 
852 513 599 0 987 966 
766 354 602 987 0 151 
837 634 519 966 151 0 
