multiobj/solutions/Ter.6.2.0.00.2.out
6 2
3 0 1 4 5 2 
5445962 9949410 
3 5 1 4 0 2 
5648130 9936396 
2 0 4 1 5 3 
5835938 9315030 
3 0 4 1 5 2 
6113574 9307062 
1 0 4 2 3 5 
6174652 9094096 
1 0 4 2 5 3 
6386624 9080958 
